logs/miss/ip/miss-05-30-0.lp
\ LP format - for model browsing. Use MPS format to capture full model detail.
Minimize
  z0 + z1 + z2 + z3 + z4 + z5
Subject To
 R0: x0,1_28 + x0,1_50 + x0,1_53 + x0,1_78 + x0,1_82 - z1 <= 0
 R1: x0,2_28 + x0,2_50 + x0,2_53 + x0,2_78 + x0,2_82 - z2 <= 0
 R2: x0,3_28 + x0,3_50 + x0,3_53 + x0,3_78 + x0,3_82 - z3 <= 0
 R3: x0,4_28 + x0,4_50 + x0,4_53 + x0,4_78 + x0,4_82 - z4 <= 0
 R4: x0,5_28 + x0,5_50 + x0,5_53 + x0,5_78 + x0,5_82 - z5 <= 0
 R5: x1,2_28 + x1,2_50 + x1,2_53 + x1,2_78 + x1,2_82 - z2 <= 0
 R6: x1,3_28 + x1,3_50 + x1,3_53 + x1,3_78 + x1,3_82 - z3 <= 0
 R7: x1,4_28 + x1,4_50 + x1,4_53 + x1,4_78 + x1,4_82 - z4 <= 0
 R8: x1,5_28 + x1,5_50 + x1,5_53 + x1,5_78 + x1,5_82 - z5 <= 0
 R9: x2,3_28 + x2,3_50 + x2,3_53 + x2,3_78 + x2,3_82 - z3 <= 0
 R10: x2,4_28 + x2,4_50 + x2,4_53 + x2,4_78 + x2,4_82 - z4 <= 0
 R11: x2,5_28 + x2,5_50 + x2,5_53 + x2,5_78 + x2,5_82 - z5 <= 0
 R12: x3,4_28 + x3,4_50 + x3,4_53 + x3,4_78 + x3,4_82 - z4 <= 0
 R13: x3,5_28 + x3,5_50 + x3,5_53 + x3,5_78 + x3,5_82 - z5 <= 0
 R14: x4,5_28 + x4,5_50 + x4,5_53 + x4,5_78 + x4,5_82 - z5 <= 0
 R15: x0,1_28 + x0,2_28 + x0,3_28 + x0,4_28 + x0,5_28 + x1,2_28 + x1,3_28
   + x1,4_28 + x1,5_28 + x2,3_28 + x2,4_28 + x2,5_28 + x3,4_28 + x3,5_28
   + x4,5_28 = 1
 R16: x0,1_50 + x0,2_50 + x0,3_50 + x0,4_50 + x0,5_50 + x1,2_50 + x1,3_50
   + x1,4_50 + x1,5_50 + x2,3_50 + x2,4_50 + x2,5_50 + x3,4_50 + x3,5_50
   + x4,5_50 = 1
 R17: x0,1_53 + x0,2_53 + x0,3_53 + x0,4_53 + x0,5_53 + x1,2_53 + x1,3_53
   + x1,4_53 + x1,5_53 + x2,3_53 + x2,4_53 + x2,5_53 + x3,4_53 + x3,5_53
   + x4,5_53 = 1
 R18: x0,1_78 + x0,2_78 + x0,3_78 + x0,4_78 + x0,5_78 + x1,2_78 + x1,3_78
   + x1,4_78 + x1,5_78 + x2,3_78 + x2,4_78 + x2,5_78 + x3,4_78 + x3,5_78
   + x4,5_78 = 1
 R19: x0,1_82 + x0,2_82 + x0,3_82 + x0,4_82 + x0,5_82 + x1,2_82 + x1,3_82
   + x1,4_82 + x1,5_82 + x2,3_82 + x2,4_82 + x2,5_82 + x3,4_82 + x3,5_82
   + x4,5_82 = 1
 R20: p0 - p1 <= -1
 R21: - 28 x0,1_28 - p0 + p1 >= 0
 R22: 291 x0,1_28 - p0 + p1 <= 319
 R23: - 50 x0,1_50 - p0 + p1 >= 0
 R24: 291 x0,1_50 - p0 + p1 <= 341
 R25: - 53 x0,1_53 - p0 + p1 >= 0
 R26: 291 x0,1_53 - p0 + p1 <= 344
 R27: - 78 x0,1_78 - p0 + p1 >= 0
 R28: 291 x0,1_78 - p0 + p1 <= 369
 R29: - 82 x0,1_82 - p0 + p1 >= 0
 R30: 291 x0,1_82 - p0 + p1 <= 373
 R31: p0 - p2 <= -1
 R32: - 28 x0,2_28 - p0 + p2 >= 0
 R33: 291 x0,2_28 - p0 + p2 <= 319
 R34: - 50 x0,2_50 - p0 + p2 >= 0
 R35: 291 x0,2_50 - p0 + p2 <= 341
 R36: - 53 x0,2_53 - p0 + p2 >= 0
 R37: 291 x0,2_53 - p0 + p2 <= 344
 R38: - 78 x0,2_78 - p0 + p2 >= 0
 R39: 291 x0,2_78 - p0 + p2 <= 369
 R40: - 82 x0,2_82 - p0 + p2 >= 0
 R41: 291 x0,2_82 - p0 + p2 <= 373
 R42: p0 - p3 <= -1
 R43: - 28 x0,3_28 - p0 + p3 >= 0
 R44: 291 x0,3_28 - p0 + p3 <= 319
 R45: - 50 x0,3_50 - p0 + p3 >= 0
 R46: 291 x0,3_50 - p0 + p3 <= 341
 R47: - 53 x0,3_53 - p0 + p3 >= 0
 R48: 291 x0,3_53 - p0 + p3 <= 344
 R49: - 78 x0,3_78 - p0 + p3 >= 0
 R50: 291 x0,3_78 - p0 + p3 <= 369
 R51: - 82 x0,3_82 - p0 + p3 >= 0
 R52: 291 x0,3_82 - p0 + p3 <= 373
 R53: p0 - p4 <= -1
 R54: - 28 x0,4_28 - p0 + p4 >= 0
 R55: 291 x0,4_28 - p0 + p4 <= 319
 R56: - 50 x0,4_50 - p0 + p4 >= 0
 R57: 291 x0,4_50 - p0 + p4 <= 341
 R58: - 53 x0,4_53 - p0 + p4 >= 0
 R59: 291 x0,4_53 - p0 + p4 <= 344
 R60: - 78 x0,4_78 - p0 + p4 >= 0
 R61: 291 x0,4_78 - p0 + p4 <= 369
 R62: - 82 x0,4_82 - p0 + p4 >= 0
 R63: 291 x0,4_82 - p0 + p4 <= 373
 R64: p0 - p5 <= -1
 R65: - 28 x0,5_28 - p0 + p5 >= 0
 R66: 291 x0,5_28 - p0 + p5 <= 319
 R67: - 50 x0,5_50 - p0 + p5 >= 0
 R68: 291 x0,5_50 - p0 + p5 <= 341
 R69: - 53 x0,5_53 - p0 + p5 >= 0
 R70: 291 x0,5_53 - p0 + p5 <= 344
 R71: - 78 x0,5_78 - p0 + p5 >= 0
 R72: 291 x0,5_78 - p0 + p5 <= 369
 R73: - 82 x0,5_82 - p0 + p5 >= 0
 R74: 291 x0,5_82 - p0 + p5 <= 373
 R75: p1 - p2 <= -1
 R76: - 28 x1,2_28 - p1 + p2 >= 0
 R77: 291 x1,2_28 - p1 + p2 <= 319
 R78: - 50 x1,2_50 - p1 + p2 >= 0
 R79: 291 x1,2_50 - p1 + p2 <= 341
 R80: - 53 x1,2_53 - p1 + p2 >= 0
 R81: 291 x1,2_53 - p1 + p2 <= 344
 R82: - 78 x1,2_78 - p1 + p2 >= 0
 R83: 291 x1,2_78 - p1 + p2 <= 369
 R84: - 82 x1,2_82 - p1 + p2 >= 0
 R85: 291 x1,2_82 - p1 + p2 <= 373
 R86: p1 - p3 <= -1
 R87: - 28 x1,3_28 - p1 + p3 >= 0
 R88: 291 x1,3_28 - p1 + p3 <= 319
 R89: - 50 x1,3_50 - p1 + p3 >= 0
 R90: 291 x1,3_50 - p1 + p3 <= 341
 R91: - 53 x1,3_53 - p1 + p3 >= 0
 R92: 291 x1,3_53 - p1 + p3 <= 344
 R93: - 78 x1,3_78 - p1 + p3 >= 0
 R94: 291 x1,3_78 - p1 + p3 <= 369
 R95: - 82 x1,3_82 - p1 + p3 >= 0
 R96: 291 x1,3_82 - p1 + p3 <= 373
 R97: p1 - p4 <= -1
 R98: - 28 x1,4_28 - p1 + p4 >= 0
 R99: 291 x1,4_28 - p1 + p4 <= 319
 R100: - 50 x1,4_50 - p1 + p4 >= 0
 R101: 291 x1,4_50 - p1 + p4 <= 341
 R102: - 53 x1,4_53 - p1 + p4 >= 0
 R103: 291 x1,4_53 - p1 + p4 <= 344
 R104: - 78 x1,4_78 - p1 + p4 >= 0
 R105: 291 x1,4_78 - p1 + p4 <= 369
 R106: - 82 x1,4_82 - p1 + p4 >= 0
 R107: 291 x1,4_82 - p1 + p4 <= 373
 R108: p1 - p5 <= -1
 R109: - 28 x1,5_28 - p1 + p5 >= 0
 R110: 291 x1,5_28 - p1 + p5 <= 319
 R111: - 50 x1,5_50 - p1 + p5 >= 0
 R112: 291 x1,5_50 - p1 + p5 <= 341
 R113: - 53 x1,5_53 - p1 + p5 >= 0
 R114: 291 x1,5_53 - p1 + p5 <= 344
 R115: - 78 x1,5_78 - p1 + p5 >= 0
 R116: 291 x1,5_78 - p1 + p5 <= 369
 R117: - 82 x1,5_82 - p1 + p5 >= 0
 R118: 291 x1,5_82 - p1 + p5 <= 373
 R119: p2 - p3 <= -1
 R120: - 28 x2,3_28 - p2 + p3 >= 0
 R121: 291 x2,3_28 - p2 + p3 <= 319
 R122: - 50 x2,3_50 - p2 + p3 >= 0
 R123: 291 x2,3_50 - p2 + p3 <= 341
 R124: - 53 x2,3_53 - p2 + p3 >= 0
 R125: 291 x2,3_53 - p2 + p3 <= 344
 R126: - 78 x2,3_78 - p2 + p3 >= 0
 R127: 291 x2,3_78 - p2 + p3 <= 369
 R128: - 82 x2,3_82 - p2 + p3 >= 0
 R129: 291 x2,3_82 - p2 + p3 <= 373
 R130: p2 - p4 <= -1
 R131: - 28 x2,4_28 - p2 + p4 >= 0
 R132: 291 x2,4_28 - p2 + p4 <= 319
 R133: - 50 x2,4_50 - p2 + p4 >= 0
 R134: 291 x2,4_50 - p2 + p4 <= 341
 R135: - 53 x2,4_53 - p2 + p4 >= 0
 R136: 291 x2,4_53 - p2 + p4 <= 344
 R137: - 78 x2,4_78 - p2 + p4 >= 0
 R138: 291 x2,4_78 - p2 + p4 <= 369
 R139: - 82 x2,4_82 - p2 + p4 >= 0
 R140: 291 x2,4_82 - p2 + p4 <= 373
 R141: p2 - p5 <= -1
 R142: - 28 x2,5_28 - p2 + p5 >= 0
 R143: 291 x2,5_28 - p2 + p5 <= 319
 R144: - 50 x2,5_50 - p2 + p5 >= 0
 R145: 291 x2,5_50 - p2 + p5 <= 341
 R146: - 53 x2,5_53 - p2 + p5 >= 0
 R147: 291 x2,5_53 - p2 + p5 <= 344
 R148: - 78 x2,5_78 - p2 + p5 >= 0
 R149: 291 x2,5_78 - p2 + p5 <= 369
 R150: - 82 x2,5_82 - p2 + p5 >= 0
 R151: 291 x2,5_82 - p2 + p5 <= 373
 R152: p3 - p4 <= -1
 R153: - 28 x3,4_28 - p3 + p4 >= 0
 R154: 291 x3,4_28 - p3 + p4 <= 319
 R155: - 50 x3,4_50 - p3 + p4 >= 0
 R156: 291 x3,4_50 - p3 + p4 <= 341
 R157: - 53 x3,4_53 - p3 + p4 >= 0
 R158: 291 x3,4_53 - p3 + p4 <= 344
 R159: - 78 x3,4_78 - p3 + p4 >= 0
 R160: 291 x3,4_78 - p3 + p4 <= 369
 R161: - 82 x3,4_82 - p3 + p4 >= 0
 R162: 291 x3,4_82 - p3 + p4 <= 373
 R163: p3 - p5 <= -1
 R164: - 28 x3,5_28 - p3 + p5 >= 0
 R165: 291 x3,5_28 - p3 + p5 <= 319
 R166: - 50 x3,5_50 - p3 + p5 >= 0
 R167: 291 x3,5_50 - p3 + p5 <= 341
 R168: - 53 x3,5_53 - p3 + p5 >= 0
 R169: 291 x3,5_53 - p3 + p5 <= 344
 R170: - 78 x3,5_78 - p3 + p5 >= 0
 R171: 291 x3,5_78 - p3 + p5 <= 369
 R172: - 82 x3,5_82 - p3 + p5 >= 0
 R173: 291 x3,5_82 - p3 + p5 <= 373
 R174: p4 - p5 <= -1
 R175: - 28 x4,5_28 - p4 + p5 >= 0
 R176: 291 x4,5_28 - p4 + p5 <= 319
 R177: - 50 x4,5_50 - p4 + p5 >= 0
 R178: 291 x4,5_50 - p4 + p5 <= 341
 R179: - 53 x4,5_53 - p4 + p5 >= 0
 R180: 291 x4,5_53 - p4 + p5 <= 344
 R181: - 78 x4,5_78 - p4 + p5 >= 0
 R182: 291 x4,5_78 - p4 + p5 <= 369
 R183: - 82 x4,5_82 - p4 + p5 >= 0
 R184: 291 x4,5_82 - p4 + p5 <= 373
 R185: z0 - z1 >= 0
 R186: z1 - z2 >= 0
 R187: z2 - z3 >= 0
 R188: z3 - z4 >= 0
 R189: z4 - z5 >= 0
Bounds
Binaries
 x0,1_28 x0,1_50 x0,1_53 x0,1_78 x0,1_82 x0,2_28 x0,2_50 x0,2_53 x0,2_78
 x0,2_82 x0,3_28 x0,3_50 x0,3_53 x0,3_78 x0,3_82 x0,4_28 x0,4_50 x0,4_53
 x0,4_78 x0,4_82 x0,5_28 x0,5_50 x0,5_53 x0,5_78 x0,5_82 x1,2_28 x1,2_50
 x1,2_53 x1,2_78 x1,2_82 x1,3_28 x1,3_50 x1,3_53 x1,3_78 x1,3_82 x1,4_28
 x1,4_50 x1,4_53 x1,4_78 x1,4_82 x1,5_28 x1,5_50 x1,5_53 x1,5_78 x1,5_82
 x2,3_28 x2,3_50 x2,3_53 x2,3_78 x2,3_82 x2,4_28 x2,4_50 x2,4_53 x2,4_78
 x2,4_82 x2,5_28 x2,5_50 x2,5_53 x2,5_78 x2,5_82 x3,4_28 x3,4_50 x3,4_53
 x3,4_78 x3,4_82 x3,5_28 x3,5_50 x3,5_53 x3,5_78 x3,5_82 x4,5_28 x4,5_50
 x4,5_53 x4,5_78 x4,5_82 z0 z1 z2 z3 z4 z5
Generals
 p0 p1 p2 p3 p4 p5
End
